NAME : N60ft310.dat.12192.tour
COMMENT : Length = 12192
COMMENT : Found by LKH [Keld Helsgaun] Tue May  2 05:19:43 2017
TYPE : TOUR
DIMENSION : 60
TOUR_SECTION
1
21
2
23
5
38
28
35
17
54
3
22
37
47
58
24
59
32
6
9
19
15
33
56
27
14
8
26
53
16
55
30
34
44
36
13
4
41
18
51
48
52
25
29
45
31
46
20
40
39
7
60
49
12
42
43
57
50
10
11
-1
EOF
